9227
6244
4310
5552
693
6432
10175
2383
4814
885
7208
4828
3921
8585
3073
2823
8361
2346
4039
5782
2045
10071
7090
1029
5047
9206
1981
6934
9244
1584
8671
7965
5078
1467
8766
8887
3257
8804
6086
7958
4612
4538
5843
3098
2783
5461
5761
4595
2187
2215
6898
